p cnf 22 51
-8 -9 0
-8 -10 0
-9 -10 0
8 9 10 0
3 -8 0
4 -8 0
5 -9 0
6 -10 0
7 -10 0
-11 -12 0
-11 -13 0
-11 -14 0
-11 -15 0
-11 -16 0
-11 -17 0
-11 -18 0
-12 -13 0
-12 -14 0
-12 -15 0
-12 -16 0
-12 -17 0
-12 -18 0
-13 -14 0
-13 -15 0
-13 -16 0
-13 -17 0
-13 -18 0
-14 -15 0
-14 -16 0
-14 -17 0
-14 -18 0
-15 -16 0
-15 -17 0
-15 -18 0
-16 -17 0
-16 -18 0
-17 -18 0
11 12 13 14 15 16 17 18 0
-19 -20 0
-19 -21 0
-19 -22 0
-20 -21 0
-20 -22 0
-21 -22 0
19 20 21 22 0
-1 -18 0
-2 -12 -19 0
-2 -13 -20 0
-2 -15 -22 0
-3 -11 0
-4 -18 0
